<?xml version = "1.0" encoding="UTF-8" standalone="yes"?>
<CPLEXSolution version="1.2">
 <header
   problemName="IloCplex"
   solutionName="incumbent"
   solutionIndex="-1"
   objectiveValue="0"
   solutionTypeValue="3"
   solutionTypeString="primal"
   solutionStatusValue="101"
   solutionStatusString="integer optimal solution"
   solutionMethodString="mip"
   primalFeasible="1"
   dualFeasible="1"
   MIPNodes="0"
   MIPIterations="0"
   writeLevel="1"/>
 <quality
   epInt="1.0000000000000001e-05"
   epRHS="9.9999999999999995e-07"
   maxIntInfeas="0"
   maxPrimalInfeas="0"
   maxX="69.183599472045898"
   maxSlack="100000"/>
 <linearConstraints>
  <constraint index="0" slack="0"/>
  <constraint index="1" slack="0"/>
  <constraint index="2" slack="0"/>
  <constraint index="3" slack="0"/>
  <constraint index="4" slack="0"/>
  <constraint index="5" slack="1"/>
  <constraint index="6" slack="1"/>
  <constraint index="7" slack="1"/>
  <constraint index="8" slack="1"/>
  <constraint index="9" slack="0"/>
  <constraint index="10" slack="1"/>
  <constraint index="11" slack="0"/>
  <constraint index="12" slack="1"/>
  <constraint index="13" slack="0"/>
  <constraint index="14" slack="1"/>
  <constraint index="15" slack="0"/>
  <constraint index="16" slack="0"/>
  <constraint index="17" slack="0"/>
  <constraint index="18" slack="0"/>
  <constraint index="19" slack="100000"/>
  <constraint index="20" slack="97458"/>
  <constraint index="21" slack="100000"/>
  <constraint index="22" slack="97458"/>
  <constraint index="23" slack="98443"/>
  <constraint index="24" slack="50"/>
  <constraint index="25" slack="49"/>
  <constraint index="26" slack="50"/>
  <constraint index="27" slack="49"/>
  <constraint index="28" slack="46"/>
  <constraint index="29" slack="0"/>
  <constraint index="30" slack="-1"/>
  <constraint index="31" slack="-1"/>
  <constraint index="32" slack="-1"/>
  <constraint index="33" slack="0"/>
  <constraint index="34" slack="0"/>
  <constraint index="35" slack="0"/>
  <constraint index="36" slack="-1"/>
  <constraint index="37" slack="0"/>
  <constraint index="38" slack="-1"/>
  <constraint index="39" slack="0"/>
  <constraint index="40" slack="0"/>
  <constraint index="41" slack="0"/>
  <constraint index="42" slack="0"/>
  <constraint index="43" slack="0"/>
  <constraint index="44" slack="-69.183599472045898"/>
 </linearConstraints>
 <variables>
  <variable index="0" value="0"/>
  <variable index="1" value="0"/>
  <variable index="2" value="0"/>
  <variable index="3" value="0"/>
  <variable index="4" value="0"/>
  <variable index="5" value="0"/>
  <variable index="6" value="0"/>
  <variable index="7" value="0"/>
  <variable index="8" value="0"/>
  <variable index="9" value="0"/>
  <variable index="10" value="0"/>
  <variable index="11" value="0"/>
  <variable index="12" value="0"/>
  <variable index="13" value="0"/>
  <variable index="14" value="0"/>
  <variable index="15" value="0"/>
  <variable index="16" value="0"/>
  <variable index="17" value="0"/>
  <variable index="18" value="0"/>
  <variable index="19" value="1"/>
  <variable index="20" value="0"/>
  <variable index="21" value="1"/>
  <variable index="22" value="-0"/>
  <variable index="23" value="1"/>
  <variable index="24" value="0"/>
  <variable index="25" value="0"/>
  <variable index="26" value="1"/>
  <variable index="27" value="1"/>
  <variable index="28" value="1"/>
  <variable index="29" value="1"/>
  <variable index="30" value="0"/>
  <variable index="31" value="28.093099594116211"/>
  <variable index="32" value="28.093099594116211"/>
  <variable index="33" value="56.186199188232422"/>
  <variable index="34" value="69.183599472045898"/>
 </variables>
</CPLEXSolution>
